16 5
42 76 77 66 37
4 5 4 4 1 1 3 1 5 5 4 5 2 1 3 1
13 17 24 21 10
11 8 4 10 11
9 8 9 13 6
8 7 9 13 6
12 9 2 9 13
11 8 9 1 16
13 13 13 19 7
11 8 5 5 14
19 16 5 14 19
11 8 3 8 13
8 8 12 15 3
6 6 11 13 4
13 9 7 4 16
4 0 11 8 9
6 7 14 15 1
16 13 4 14 15
11 9 7 13 8
